vcsp25_5_21_85_1.ds 25 5 63 64
5 5 5 5 5 5 5 5 5 5 5 5 5 5 5 5 5 5 5 5 5 5 5 5 5
2 20 21 1 4
3 2 0
3 3 0
2 1 0
1 3 0
2 14 15 1 4
0 1 0
3 0 0
4 2 0
1 3 0
2 18 21 1 4
0 2 0
3 3 0
0 0 0
3 0 0
2 2 23 1 4
2 3 0
2 4 0
0 2 0
1 4 0
2 7 14 1 4
0 2 0
1 3 0
3 2 0
4 0 0
2 10 17 1 4
0 3 0
2 2 0
1 0 0
1 3 0
2 1 9 1 4
3 0 0
1 1 0
4 0 0
3 3 0
2 9 12 1 4
2 2 0
3 0 0
0 3 0
3 2 0
2 8 9 1 4
4 1 0
3 1 0
1 1 0
0 2 0
2 0 22 1 4
0 0 0
0 1 0
1 2 0
1 1 0
2 10 22 1 4
3 0 0
4 2 0
0 4 0
2 3 0
2 1 12 1 4
2 2 0
0 0 0
4 2 0
1 4 0
2 0 15 1 4
0 4 0
1 0 0
2 3 0
2 1 0
2 8 12 1 4
4 4 0
0 0 0
1 2 0
2 0 0
2 12 16 1 4
1 0 0
2 4 0
3 0 0
2 1 0
2 8 19 1 4
2 0 0
4 4 0
3 0 0
1 3 0
2 13 21 1 4
2 2 0
4 1 0
2 1 0
2 4 0
2 3 18 1 4
1 3 0
2 2 0
4 0 0
3 2 0
2 5 24 1 4
2 1 0
3 0 0
1 0 0
3 4 0
2 11 23 1 4
3 3 0
1 4 0
2 1 0
4 2 0
2 14 16 1 4
3 1 0
3 0 0
3 3 0
4 0 0
2 7 8 1 4
3 3 0
4 2 0
1 1 0
3 2 0
2 12 19 1 4
1 4 0
3 4 0
0 4 0
4 1 0
2 5 20 1 4
2 2 0
1 4 0
2 1 0
0 1 0
2 5 6 1 4
0 1 0
1 2 0
4 3 0
0 4 0
2 0 6 1 4
2 4 0
3 3 0
1 2 0
0 2 0
2 9 20 1 4
3 4 0
1 0 0
2 1 0
1 2 0
2 15 20 1 4
2 2 0
2 0 0
1 0 0
0 2 0
2 19 21 1 4
4 3 0
4 4 0
2 3 0
2 2 0
2 17 21 1 4
0 2 0
2 2 0
1 1 0
3 3 0
2 3 7 1 4
1 3 0
0 4 0
3 3 0
2 4 0
2 0 23 1 4
0 0 0
0 2 0
1 4 0
1 2 0
2 15 19 1 4
3 0 0
2 4 0
0 4 0
4 4 0
2 17 22 1 4
0 2 0
4 0 0
3 3 0
3 4 0
2 13 17 1 4
4 3 0
2 3 0
0 0 0
1 3 0
2 16 24 1 4
0 4 0
1 4 0
4 3 0
3 3 0
2 6 23 1 4
2 3 0
4 1 0
3 1 0
0 4 0
2 9 19 1 4
2 0 0
0 0 0
1 3 0
0 4 0
2 9 24 1 4
0 1 0
3 3 0
4 4 0
1 1 0
2 4 17 1 4
1 4 0
3 4 0
2 1 0
2 2 0
2 13 24 1 4
2 3 0
3 4 0
0 1 0
2 4 0
2 4 16 1 4
0 1 0
3 3 0
3 1 0
2 3 0
2 6 8 1 4
2 4 0
3 2 0
0 2 0
2 2 0
2 4 24 1 4
3 4 0
0 1 0
0 2 0
0 0 0
2 3 9 1 4
2 0 0
1 4 0
4 1 0
3 4 0
2 7 12 1 4
1 3 0
1 0 0
4 0 0
4 3 0
2 5 14 1 4
2 4 0
3 1 0
1 1 0
4 3 0
2 1 23 1 4
1 0 0
2 2 0
2 4 0
0 4 0
2 4 15 1 4
4 2 0
1 1 0
2 1 0
4 1 0
2 15 18 1 4
4 1 0
3 2 0
2 0 0
0 4 0
2 16 18 1 4
0 4 0
0 1 0
1 2 0
1 3 0
2 0 1 1 4
3 4 0
4 4 0
4 3 0
2 0 0
2 17 18 1 4
3 2 0
3 1 0
1 2 0
2 4 0
2 13 18 1 4
2 4 0
4 3 0
0 4 0
3 2 0
2 11 14 1 4
2 0 0
0 2 0
0 3 0
0 0 0
2 6 11 1 4
2 4 0
0 1 0
2 3 0
1 1 0
2 19 20 1 4
3 4 0
2 3 0
0 0 0
4 2 0
2 1 3 1 4
0 2 0
2 3 0
3 1 0
0 0 0
2 4 22 1 4
1 3 0
3 0 0
0 1 0
2 2 0
2 10 15 1 4
1 3 0
4 4 0
1 4 0
2 2 0
2 14 19 1 4
2 1 0
4 2 0
0 1 0
2 4 0
2 10 16 1 4
3 0 0
4 1 0
2 4 0
3 1 0
2 2 16 1 4
1 2 0
2 3 0
4 2 0
2 4 0
